TYPE : Vertex Cover
DIMENSION: 28
EDGE_DATA_SECTION:
0 1
0 5
0 7
0 16
0 25
0 27
1 2
1 9
1 10
1 18
1 20
2 8
2 25
3 10
3 15
3 16
3 23
4 5
4 7
4 12
4 15
5 6
5 12
5 14
6 9
6 17
7 27
8 11
8 15
8 19
8 20
9 10
9 16
9 19
10 11
11 12
11 19
11 23
12 18
12 20
13 19
14 15
14 19
14 20
14 26
15 16
15 21
15 23
15 26
16 19
16 24
17 20
17 22
17 27
18 21
18 27
19 22
20 23
21 23
22 27
24 26
-1
VERTEX_DEGREE:
6.0 6.0 3.0 4.0 4.0 5.0 3.0 3.0 5.0 5.0 4.0 5.0 5.0 1.0 5.0 8.0 6.0 4.0 4.0 7.0 6.0 3.0 3.0 5.0 2.0 2.0 3.0 5.0
VERTEX_COVER:
0 2 4 5 9 10 11 15 16 17 18 19 20 23 26 27
EOF
